c File: instances/32_0.25_3.col
c
c Description: Random graph of size 32 vertices and P(0.25) of edges between any two vertices.
p col 32 496
e 1 3
e 1 5
e 1 13
e 1 20
e 1 23
e 1 25
e 1 28
e 1 29
e 2 8
e 2 9
e 2 11
e 2 16
e 2 17
e 2 25
e 2 29
e 2 31
e 3 6
e 3 8
e 3 9
e 3 12
e 3 13
e 3 18
e 3 20
e 3 23
e 3 25
e 3 26
e 3 27
e 3 28
e 3 31
e 3 32
e 4 5
e 4 8
e 4 14
e 4 15
e 4 16
e 4 18
e 4 20
e 4 25
e 4 26
e 4 30
e 5 11
e 5 12
e 5 22
e 5 28
e 5 31
e 6 8
e 6 14
e 6 15
e 7 13
e 7 21
e 7 23
e 7 24
e 7 27
e 7 28
e 7 31
e 7 32
e 8 11
e 8 18
e 8 20
e 8 24
e 9 18
e 9 24
e 9 25
e 9 30
e 10 13
e 10 18
e 10 19
e 10 20
e 10 21
e 10 22
e 10 23
e 10 26
e 10 28
e 10 29
e 10 32
e 11 13
e 11 16
e 11 17
e 11 22
e 11 28
e 11 31
e 12 23
e 12 26
e 12 28
e 13 14
e 13 16
e 13 17
e 13 31
e 14 15
e 14 20
e 14 21
e 14 22
e 14 23
e 14 24
e 15 17
e 15 18
e 15 21
e 15 22
e 15 28
e 15 30
e 15 31
e 15 32
e 16 19
e 16 21
e 16 23
e 17 19
e 17 22
e 17 24
e 17 26
e 17 27
e 17 28
e 17 29
e 17 31
e 18 19
e 18 23
e 18 25
e 19 22
e 19 23
e 19 29
e 20 27
e 20 28
e 20 29
e 21 25
e 21 28
e 22 27
e 23 25
e 23 27
e 23 31
e 25 27
e 26 30
e 27 29
e 27 30